85 45 22 51 106 50 96 120 39 
133 98 183 43 150 71 13 154 67 
182 57 128 94 86 114 41 126 174 157 36 
47 200 124 184 179 136 55 129 178 19 
42 181 172 104 170 186 79 73 193 30 175 
163 48 131 7 27 169 72 74 70 107 83 
153 24 14 130 138 159 46 137 11 115 2 1 75 
54 18 147 59 166 121 158 82 146 
199 139 37 89 134 191 116 141 64 
100 12 9 188 32 65 109 189 135 93 97 
4 61 3 102 91 44 80 185 76 148 
6 162 63 5 62 35 25 10 77 87 123 8 60 
152 68 15 180 78 171 187 81 33 34 
92 16 40 143 29 108 165 117 192 17 
151 177 155 113 144 66 
142 28 49 132 176 69 105 58 194 
156 196 190 167 21 145 
127 118 160 99 101 
195 173 31 38 112 53 
140 88 84 20 90 95 
197 164 26 122 
149 103 198 
56 168 23 52 125 
161 119 110 
111 

